1
1 0
293.5 116.5 110.0
22
2 52 1 37 1 28 1 8
18 68 0 34 1 33 1 16
11 83 0 44 1 23 1 24
7 54 1 52 1 49 1 16
1 113 0 92 0 33 1 16
22 108 0 57 1 40 1 16
27 99 0 46 1 38 1 8
4 99 0 37 1 30 1 8
17 83 0 78 0 37 1 8
29 91 0 69 0 32 1 8
3 57 1 33 1 29 1 16
20 97 0 53 1 32 1 8
13 78 1 72 1 57 1 8
9 79 1 68 1 44 1 20
30 71 0 63 1 33 1 8
26 67 1 67 1 55 1 8
5 92 0 64 1 33 1 8
8 75 0 45 1 35 1 8
24 101 0 46 1 25 1 8
14 98 0 88 1 47 1 8
10 116 0 49 1 47 1 8
19 103 0 69 1 49 1 8

